; benchmark generated from python API
(set-info :status unknown)
(declare-fun x_epoch () Int)
(declare-fun y_epoch () Int)
(declare-fun x_shift_period_459206_epoch () Int)
(declare-fun x_year () Int)
(declare-fun x_month () Int)
(declare-fun x_day () Int)
(declare-fun x_shift_period_459206_year () Int)
(declare-fun x_shift_period_459206_month () Int)
(declare-fun x_shift_period_459206_day () Int)
(declare-fun y_shift_period_466762_epoch () Int)
(declare-fun y_year () Int)
(declare-fun y_month () Int)
(declare-fun y_day () Int)
(declare-fun y_shift_period_466762_year () Int)
(declare-fun y_shift_period_466762_month () Int)
(declare-fun y_shift_period_466762_day () Int)
(assert
 (>= x_epoch (- 36584)))
(assert
 (<= x_epoch 36829))
(assert
 (>= y_epoch (- 36584)))
(assert
 (<= y_epoch 36829))
(assert
 (= x_epoch 7275))
(assert
 (= y_epoch 6910))
(assert
 (>= x_shift_period_459206_epoch (- 36584)))
(assert
 (<= x_shift_period_459206_epoch 36829))
(assert
 (let (($x905 (<= x_year 2100)))
 (let (($x484 (>= x_year 1900)))
 (let (($x626 (= x_month 11)))
 (let (($x3475 (= x_month 9)))
 (let (($x827 (= x_month 6)))
 (let (($x3514 (= x_month 4)))
 (let ((?x115 (ite (or $x3514 $x827 $x3475 $x626) 30 31)))
 (let (($x270 (= (mod x_year 4) 0)))
 (let (($x3215 (= (mod x_year 100) 0)))
 (let (($x2817 (= (mod x_year 400) 0)))
 (let (($x335 (ite $x2817 true (ite $x3215 false $x270))))
 (let (($x2083 (= x_month 2)))
 (let ((?x3455 (ite $x2083 (ite $x335 29 28) ?x115)))
 (let (($x823 (>= x_day 1)))
 (let (($x958 (<= x_month 12)))
 (let (($x429 (>= x_month 1)))
 (and $x429 $x958 $x823 (<= x_day ?x3455) $x484 $x905))))))))))))))))))
(assert
 (let (($x29 (or (and (= (mod 2000 4) 0) (and (distinct (mod 2000 100) 0) true)) (= (mod 2000 400) 0))))
 (let ((?x36 (ite (= 3 2) (ite $x29 31 31) (ite (= 3 1) (ite $x29 0 0) 0))))
 (let ((?x40 (ite $x29 60 59)))
 (let ((?x41 (ite (= 3 3) ?x40 ?x36)))
 (let ((?x46 (ite (= 3 4) (ite $x29 91 90) ?x41)))
 (let ((?x52 (ite (= 3 5) (ite $x29 121 120) ?x46)))
 (let ((?x58 (ite (= 3 6) (ite $x29 152 151) ?x52)))
 (let ((?x64 (ite (= 3 7) (ite $x29 182 181) ?x58)))
 (let ((?x70 (ite (= 3 8) (ite $x29 213 212) ?x64)))
 (let ((?x76 (ite (= 3 9) (ite $x29 244 243) ?x70)))
 (let ((?x82 (ite (= 3 10) (ite $x29 274 273) ?x76)))
 (let ((?x88 (ite (= 3 11) (ite $x29 305 304) ?x82)))
 (let ((?x16 (- (+ (* 365 (- 2000 1)) (div (- 2000 1) 4)) (div (- 2000 1) 100))))
 (let ((?x95 (+ (+ ?x16 (div (- 2000 1) 400)) (ite (= 3 12) (ite $x29 335 334) ?x88))))
 (let ((?x97 (+ ?x95 (- 1 1))))
 (let (($x270 (= (mod x_year 4) 0)))
 (let (($x3215 (= (mod x_year 100) 0)))
 (let (($x2817 (= (mod x_year 400) 0)))
 (let (($x335 (ite $x2817 true (ite $x3215 false $x270))))
 (let (($x1187 (= 2 x_month)))
 (let ((?x854 (ite $x1187 (ite $x335 31 31) (ite (= 1 x_month) (ite $x335 0 0) 0))))
 (let (($x697 (= 3 x_month)))
 (let (($x290 (= 4 x_month)))
 (let ((?x772 (ite $x290 (ite $x335 91 90) (ite $x697 (ite $x335 60 59) ?x854))))
 (let (($x385 (= 5 x_month)))
 (let (($x1666 (= 6 x_month)))
 (let ((?x614 (ite $x1666 (ite $x335 152 151) (ite $x385 (ite $x335 121 120) ?x772))))
 (let (($x1471 (= 7 x_month)))
 (let (($x654 (= 8 x_month)))
 (let ((?x257 (ite $x654 (ite $x335 213 212) (ite $x1471 (ite $x335 182 181) ?x614))))
 (let (($x2288 (= 9 x_month)))
 (let (($x619 (= 10 x_month)))
 (let ((?x1429 (ite $x619 (ite $x335 274 273) (ite $x2288 (ite $x335 244 243) ?x257))))
 (let (($x444 (= 11 x_month)))
 (let (($x2946 (= 12 x_month)))
 (let ((?x292 (ite $x2946 (ite $x335 335 334) (ite $x444 (ite $x335 305 304) ?x1429))))
 (let ((?x680 (- (+ (* 365 (- x_year 1)) (div (- x_year 1) 4)) (div (- x_year 1) 100))))
 (let ((?x451 (+ (+ (+ ?x680 (div (- x_year 1) 400)) ?x292) (- x_day 1))))
 (= x_epoch (- ?x451 ?x97)))))))))))))))))))))))))))))))))))))))))
(assert
 (let (($x2015 (<= x_shift_period_459206_year 2100)))
 (let (($x1263 (>= x_shift_period_459206_year 1900)))
 (let (($x1936 (= x_shift_period_459206_month 11)))
 (let (($x2695 (= x_shift_period_459206_month 9)))
 (let (($x4666 (= x_shift_period_459206_month 6)))
 (let (($x3779 (= x_shift_period_459206_month 4)))
 (let ((?x3878 (ite (or $x3779 $x4666 $x2695 $x1936) 30 31)))
 (let (($x2804 (= (mod x_shift_period_459206_year 4) 0)))
 (let (($x4315 (= (mod x_shift_period_459206_year 100) 0)))
 (let (($x4331 (= (mod x_shift_period_459206_year 400) 0)))
 (let (($x2259 (ite $x4331 true (ite $x4315 false $x2804))))
 (let (($x3667 (= x_shift_period_459206_month 2)))
 (let (($x4693 (>= x_shift_period_459206_day 1)))
 (let (($x808 (<= x_shift_period_459206_month 12)))
 (let (($x2904 (>= x_shift_period_459206_month 1)))
 (and $x2904 $x808 $x4693 (<= x_shift_period_459206_day (ite $x3667 (ite $x2259 29 28) ?x3878)) $x1263 $x2015)))))))))))))))))
(assert
 (let (($x29 (or (and (= (mod 2000 4) 0) (and (distinct (mod 2000 100) 0) true)) (= (mod 2000 400) 0))))
 (let ((?x36 (ite (= 3 2) (ite $x29 31 31) (ite (= 3 1) (ite $x29 0 0) 0))))
 (let ((?x40 (ite $x29 60 59)))
 (let ((?x41 (ite (= 3 3) ?x40 ?x36)))
 (let ((?x46 (ite (= 3 4) (ite $x29 91 90) ?x41)))
 (let ((?x52 (ite (= 3 5) (ite $x29 121 120) ?x46)))
 (let ((?x58 (ite (= 3 6) (ite $x29 152 151) ?x52)))
 (let ((?x64 (ite (= 3 7) (ite $x29 182 181) ?x58)))
 (let ((?x70 (ite (= 3 8) (ite $x29 213 212) ?x64)))
 (let ((?x76 (ite (= 3 9) (ite $x29 244 243) ?x70)))
 (let ((?x82 (ite (= 3 10) (ite $x29 274 273) ?x76)))
 (let ((?x88 (ite (= 3 11) (ite $x29 305 304) ?x82)))
 (let ((?x16 (- (+ (* 365 (- 2000 1)) (div (- 2000 1) 4)) (div (- 2000 1) 100))))
 (let ((?x95 (+ (+ ?x16 (div (- 2000 1) 400)) (ite (= 3 12) (ite $x29 335 334) ?x88))))
 (let ((?x97 (+ ?x95 (- 1 1))))
 (let (($x2804 (= (mod x_shift_period_459206_year 4) 0)))
 (let (($x4315 (= (mod x_shift_period_459206_year 100) 0)))
 (let (($x4331 (= (mod x_shift_period_459206_year 400) 0)))
 (let (($x2259 (ite $x4331 true (ite $x4315 false $x2804))))
 (let ((?x4745 (ite (= 1 x_shift_period_459206_month) (ite $x2259 0 0) 0)))
 (let ((?x1359 (ite (= 3 x_shift_period_459206_month) (ite $x2259 60 59) (ite (= 2 x_shift_period_459206_month) (ite $x2259 31 31) ?x4745))))
 (let ((?x1777 (ite (= 5 x_shift_period_459206_month) (ite $x2259 121 120) (ite (= 4 x_shift_period_459206_month) (ite $x2259 91 90) ?x1359))))
 (let ((?x1986 (ite (= 7 x_shift_period_459206_month) (ite $x2259 182 181) (ite (= 6 x_shift_period_459206_month) (ite $x2259 152 151) ?x1777))))
 (let ((?x3188 (ite (= 9 x_shift_period_459206_month) (ite $x2259 244 243) (ite (= 8 x_shift_period_459206_month) (ite $x2259 213 212) ?x1986))))
 (let ((?x4784 (ite (= 11 x_shift_period_459206_month) (ite $x2259 305 304) (ite (= 10 x_shift_period_459206_month) (ite $x2259 274 273) ?x3188))))
 (let ((?x3266 (+ (* 365 (- x_shift_period_459206_year 1)) (div (- x_shift_period_459206_year 1) 4))))
 (let ((?x3361 (+ (- ?x3266 (div (- x_shift_period_459206_year 1) 100)) (div (- x_shift_period_459206_year 1) 400))))
 (let ((?x3433 (+ ?x3361 (ite (= 12 x_shift_period_459206_month) (ite $x2259 335 334) ?x4784))))
 (= x_shift_period_459206_epoch (- (+ ?x3433 (- x_shift_period_459206_day 1)) ?x97)))))))))))))))))))))))))))))))
(assert
 (let ((?x2629 (* 12 x_year)))
 (let ((?x416 (+ ?x2629 (- x_month 1))))
 (let ((?x2970 (+ ?x416 1)))
 (let ((?x4898 (div ?x2970 12)))
 (= x_shift_period_459206_year ?x4898))))))
(assert
 (let ((?x3173 (+ (mod (+ (+ (* 12 x_year) (- x_month 1)) 1) 12) 1)))
 (= x_shift_period_459206_month ?x3173)))
(assert
 (let ((?x3173 (+ (mod (+ (+ (* 12 x_year) (- x_month 1)) 1) 12) 1)))
 (let ((?x1583 (ite (or (= ?x3173 4) (= ?x3173 6) (= ?x3173 9) (= ?x3173 11)) 30 31)))
 (let ((?x2629 (* 12 x_year)))
 (let ((?x416 (+ ?x2629 (- x_month 1))))
 (let ((?x2970 (+ ?x416 1)))
 (let ((?x4898 (div ?x2970 12)))
 (let (($x2467 (ite (= (mod ?x4898 400) 0) true (ite (= (mod ?x4898 100) 0) false (= (mod ?x4898 4) 0)))))
 (let ((?x4654 (ite (= ?x3173 2) (ite $x2467 29 28) ?x1583)))
 (let ((?x4690 (ite (<= x_day ?x4654) x_day ?x4654)))
 (let (($x626 (= x_month 11)))
 (let (($x3475 (= x_month 9)))
 (let (($x827 (= x_month 6)))
 (let (($x3514 (= x_month 4)))
 (let ((?x115 (ite (or $x3514 $x827 $x3475 $x626) 30 31)))
 (let (($x270 (= (mod x_year 4) 0)))
 (let (($x3215 (= (mod x_year 100) 0)))
 (let (($x2817 (= (mod x_year 400) 0)))
 (let (($x335 (ite $x2817 true (ite $x3215 false $x270))))
 (let (($x2083 (= x_month 2)))
 (let ((?x3455 (ite $x2083 (ite $x335 29 28) ?x115)))
 (let (($x1398 (= x_day ?x3455)))
 (= x_shift_period_459206_day (ite false (ite $x1398 ?x4654 ?x4690) ?x4690))))))))))))))))))))))))
(assert
 (= x_shift_period_459206_epoch 7304))
(assert
 (>= y_shift_period_466762_epoch (- 36584)))
(assert
 (<= y_shift_period_466762_epoch 36829))
(assert
 (let (($x5063 (<= y_year 2100)))
 (let (($x5068 (>= y_year 1900)))
 (let (($x2929 (= y_month 11)))
 (let (($x1129 (= y_month 9)))
 (let (($x5012 (= y_month 6)))
 (let (($x5044 (= y_month 4)))
 (let ((?x3682 (ite (or $x5044 $x5012 $x1129 $x2929) 30 31)))
 (let (($x5037 (= (mod y_year 4) 0)))
 (let (($x1531 (= (mod y_year 100) 0)))
 (let (($x4559 (= (mod y_year 400) 0)))
 (let (($x5047 (ite $x4559 true (ite $x1531 false $x5037))))
 (let (($x2437 (= y_month 2)))
 (let ((?x125 (ite $x2437 (ite $x5047 29 28) ?x3682)))
 (let (($x5018 (>= y_day 1)))
 (let (($x3447 (<= y_month 12)))
 (let (($x5023 (>= y_month 1)))
 (and $x5023 $x3447 $x5018 (<= y_day ?x125) $x5068 $x5063))))))))))))))))))
(assert
 (let (($x29 (or (and (= (mod 2000 4) 0) (and (distinct (mod 2000 100) 0) true)) (= (mod 2000 400) 0))))
 (let ((?x36 (ite (= 3 2) (ite $x29 31 31) (ite (= 3 1) (ite $x29 0 0) 0))))
 (let ((?x40 (ite $x29 60 59)))
 (let ((?x41 (ite (= 3 3) ?x40 ?x36)))
 (let ((?x46 (ite (= 3 4) (ite $x29 91 90) ?x41)))
 (let ((?x52 (ite (= 3 5) (ite $x29 121 120) ?x46)))
 (let ((?x58 (ite (= 3 6) (ite $x29 152 151) ?x52)))
 (let ((?x64 (ite (= 3 7) (ite $x29 182 181) ?x58)))
 (let ((?x70 (ite (= 3 8) (ite $x29 213 212) ?x64)))
 (let ((?x76 (ite (= 3 9) (ite $x29 244 243) ?x70)))
 (let ((?x82 (ite (= 3 10) (ite $x29 274 273) ?x76)))
 (let ((?x88 (ite (= 3 11) (ite $x29 305 304) ?x82)))
 (let ((?x16 (- (+ (* 365 (- 2000 1)) (div (- 2000 1) 4)) (div (- 2000 1) 100))))
 (let ((?x95 (+ (+ ?x16 (div (- 2000 1) 400)) (ite (= 3 12) (ite $x29 335 334) ?x88))))
 (let ((?x97 (+ ?x95 (- 1 1))))
 (let (($x5037 (= (mod y_year 4) 0)))
 (let (($x1531 (= (mod y_year 100) 0)))
 (let (($x4559 (= (mod y_year 400) 0)))
 (let (($x5047 (ite $x4559 true (ite $x1531 false $x5037))))
 (let ((?x5069 (ite (= 2 y_month) (ite $x5047 31 31) (ite (= 1 y_month) (ite $x5047 0 0) 0))))
 (let ((?x3076 (ite (= 4 y_month) (ite $x5047 91 90) (ite (= 3 y_month) (ite $x5047 60 59) ?x5069))))
 (let ((?x2501 (ite (= 6 y_month) (ite $x5047 152 151) (ite (= 5 y_month) (ite $x5047 121 120) ?x3076))))
 (let ((?x131 (ite (= 8 y_month) (ite $x5047 213 212) (ite (= 7 y_month) (ite $x5047 182 181) ?x2501))))
 (let ((?x5118 (ite (= 10 y_month) (ite $x5047 274 273) (ite (= 9 y_month) (ite $x5047 244 243) ?x131))))
 (let ((?x2292 (ite (= 12 y_month) (ite $x5047 335 334) (ite (= 11 y_month) (ite $x5047 305 304) ?x5118))))
 (let ((?x3321 (- (+ (* 365 (- y_year 1)) (div (- y_year 1) 4)) (div (- y_year 1) 100))))
 (let ((?x1523 (+ (+ (+ ?x3321 (div (- y_year 1) 400)) ?x2292) (- y_day 1))))
 (= y_epoch (- ?x1523 ?x97))))))))))))))))))))))))))))))
(assert
 (let (($x3402 (<= y_shift_period_466762_year 2100)))
 (let (($x5257 (>= y_shift_period_466762_year 1900)))
 (let (($x1202 (= y_shift_period_466762_month 11)))
 (let (($x1310 (= y_shift_period_466762_month 9)))
 (let (($x5250 (= y_shift_period_466762_month 6)))
 (let (($x5261 (= y_shift_period_466762_month 4)))
 (let ((?x3280 (ite (or $x5261 $x5250 $x1310 $x1202) 30 31)))
 (let (($x5265 (= (mod y_shift_period_466762_year 4) 0)))
 (let (($x5266 (= (mod y_shift_period_466762_year 100) 0)))
 (let (($x2789 (= (mod y_shift_period_466762_year 400) 0)))
 (let (($x5260 (ite $x2789 true (ite $x5266 false $x5265))))
 (let (($x814 (= y_shift_period_466762_month 2)))
 (let (($x121 (>= y_shift_period_466762_day 1)))
 (let (($x4597 (<= y_shift_period_466762_month 12)))
 (let (($x3192 (>= y_shift_period_466762_month 1)))
 (and $x3192 $x4597 $x121 (<= y_shift_period_466762_day (ite $x814 (ite $x5260 29 28) ?x3280)) $x5257 $x3402)))))))))))))))))
(assert
 (let (($x29 (or (and (= (mod 2000 4) 0) (and (distinct (mod 2000 100) 0) true)) (= (mod 2000 400) 0))))
 (let ((?x36 (ite (= 3 2) (ite $x29 31 31) (ite (= 3 1) (ite $x29 0 0) 0))))
 (let ((?x40 (ite $x29 60 59)))
 (let ((?x41 (ite (= 3 3) ?x40 ?x36)))
 (let ((?x46 (ite (= 3 4) (ite $x29 91 90) ?x41)))
 (let ((?x52 (ite (= 3 5) (ite $x29 121 120) ?x46)))
 (let ((?x58 (ite (= 3 6) (ite $x29 152 151) ?x52)))
 (let ((?x64 (ite (= 3 7) (ite $x29 182 181) ?x58)))
 (let ((?x70 (ite (= 3 8) (ite $x29 213 212) ?x64)))
 (let ((?x76 (ite (= 3 9) (ite $x29 244 243) ?x70)))
 (let ((?x82 (ite (= 3 10) (ite $x29 274 273) ?x76)))
 (let ((?x88 (ite (= 3 11) (ite $x29 305 304) ?x82)))
 (let ((?x16 (- (+ (* 365 (- 2000 1)) (div (- 2000 1) 4)) (div (- 2000 1) 100))))
 (let ((?x95 (+ (+ ?x16 (div (- 2000 1) 400)) (ite (= 3 12) (ite $x29 335 334) ?x88))))
 (let ((?x97 (+ ?x95 (- 1 1))))
 (let (($x5265 (= (mod y_shift_period_466762_year 4) 0)))
 (let (($x5266 (= (mod y_shift_period_466762_year 100) 0)))
 (let (($x2789 (= (mod y_shift_period_466762_year 400) 0)))
 (let (($x5260 (ite $x2789 true (ite $x5266 false $x5265))))
 (let ((?x5299 (ite (= 1 y_shift_period_466762_month) (ite $x5260 0 0) 0)))
 (let ((?x5323 (ite (= 3 y_shift_period_466762_month) (ite $x5260 60 59) (ite (= 2 y_shift_period_466762_month) (ite $x5260 31 31) ?x5299))))
 (let ((?x5337 (ite (= 5 y_shift_period_466762_month) (ite $x5260 121 120) (ite (= 4 y_shift_period_466762_month) (ite $x5260 91 90) ?x5323))))
 (let ((?x2272 (ite (= 7 y_shift_period_466762_month) (ite $x5260 182 181) (ite (= 6 y_shift_period_466762_month) (ite $x5260 152 151) ?x5337))))
 (let ((?x2894 (ite (= 9 y_shift_period_466762_month) (ite $x5260 244 243) (ite (= 8 y_shift_period_466762_month) (ite $x5260 213 212) ?x2272))))
 (let ((?x5340 (ite (= 11 y_shift_period_466762_month) (ite $x5260 305 304) (ite (= 10 y_shift_period_466762_month) (ite $x5260 274 273) ?x2894))))
 (let ((?x5273 (+ (* 365 (- y_shift_period_466762_year 1)) (div (- y_shift_period_466762_year 1) 4))))
 (let ((?x850 (+ (- ?x5273 (div (- y_shift_period_466762_year 1) 100)) (div (- y_shift_period_466762_year 1) 400))))
 (let ((?x5347 (+ ?x850 (ite (= 12 y_shift_period_466762_month) (ite $x5260 335 334) ?x5340))))
 (= y_shift_period_466762_epoch (- (+ ?x5347 (- y_shift_period_466762_day 1)) ?x97)))))))))))))))))))))))))))))))
(assert
 (let ((?x4620 (+ (+ (* 12 y_year) (- y_month 1)) 1)))
 (let ((?x5385 (div ?x4620 12)))
 (= y_shift_period_466762_year ?x5385))))
(assert
 (let ((?x2365 (+ (mod (+ (+ (* 12 y_year) (- y_month 1)) 1) 12) 1)))
 (= y_shift_period_466762_month ?x2365)))
(assert
 (let ((?x2365 (+ (mod (+ (+ (* 12 y_year) (- y_month 1)) 1) 12) 1)))
 (let ((?x1068 (ite (or (= ?x2365 4) (= ?x2365 6) (= ?x2365 9) (= ?x2365 11)) 30 31)))
 (let ((?x4620 (+ (+ (* 12 y_year) (- y_month 1)) 1)))
 (let ((?x5385 (div ?x4620 12)))
 (let (($x3308 (ite (= (mod ?x5385 400) 0) true (ite (= (mod ?x5385 100) 0) false (= (mod ?x5385 4) 0)))))
 (let ((?x3351 (ite (= ?x2365 2) (ite $x3308 29 28) ?x1068)))
 (let ((?x2056 (ite (<= y_day ?x3351) y_day ?x3351)))
 (let (($x2929 (= y_month 11)))
 (let (($x1129 (= y_month 9)))
 (let (($x5012 (= y_month 6)))
 (let (($x5044 (= y_month 4)))
 (let ((?x3682 (ite (or $x5044 $x5012 $x1129 $x2929) 30 31)))
 (let (($x5037 (= (mod y_year 4) 0)))
 (let (($x1531 (= (mod y_year 100) 0)))
 (let (($x4559 (= (mod y_year 400) 0)))
 (let (($x5047 (ite $x4559 true (ite $x1531 false $x5037))))
 (let (($x2437 (= y_month 2)))
 (let ((?x125 (ite $x2437 (ite $x5047 29 28) ?x3682)))
 (= y_shift_period_466762_day (ite false (ite (= y_day ?x125) ?x3351 ?x2056) ?x2056)))))))))))))))))))))
(assert
 (= y_shift_period_466762_epoch 6938))
(check-sat)
